p cnf 12 50 
6 -12 -2 0
-8 10 6 0
1 8 7 0
9 5 12 0
-9 11 -2 0
-2 11 5 0
-1 5 11 0
-9 5 7 0
-4 -3 -1 0
10 6 3 0
9 8 6 0
4 -7 -2 0
-7 3 -5 0
-8 -5 2 0
11 5 -3 0
-11 1 5 0
3 -1 9 0
-12 7 -9 0
7 1 5 0
9 12 -10 0
1 10 3 0
7 6 10 0
2 5 6 0
-9 2 11 0
9 11 -5 0
5 2 -4 0
-7 -8 -2 0
-2 -5 9 0
12 -1 -10 0
-11 -6 -8 0
-12 10 -2 0
1 2 -10 0
-4 -3 -7 0
6 -8 10 0
1 3 10 0
4 -1 -10 0
6 3 11 0
-1 -12 11 0
-11 -8 -10 0
9 -2 -3 0
3 -9 11 0
10 12 -4 0
7 -8 11 0
7 2 -1 0
3 5 -12 0
-3 2 11 0
3 -12 -6 0
-6 -7 -9 0
-10 8 -1 0
-8 -6 -1 0
